\ LP format - for model browsing. Use MPS format to capture full model detail.
Maximize
  69.12 x_00 + 138.24 x_01 + 46.08 x_02 + 46.08 x_03 + 138.24 x_04
   + 46.08 x_05 + 46.08 x_06 + 46.08 x_10 + 138.24 x_11 + 138.24 x_12
   + 115.2 x_13 + 115.2 x_14 + 138.24 x_15 + 69.12 x_16 + 138.24 x_20
   + 69.12 x_21 + 46.08 x_22 + 92.16 x_23 + 46.08 x_24 + 115.2 x_25
   + 69.12 x_26 + 92.16 x_30 + 92.16 x_31 + 46.08 x_32 + 69.12 x_33
   + 92.16 x_34 + 115.2 x_35 + 138.24 x_36 + 46.08 x_40 + 138.24 x_41
   + 69.12 x_42 + 46.08 x_43 + 115.2 x_44 + 115.2 x_45 + 138.24 x_46
   + 115.2 x_50 + 46.08 x_51 + 115.2 x_52 + 46.08 x_53 + 115.2 x_54
   + 69.12 x_55 + 46.08 x_56 + 69.12 x_60 + 69.12 x_61 + 69.12 x_62
   + 138.24 x_63 + 92.16 x_64 + 115.2 x_65 + 92.16 x_66 + 115.2 x_70
   + 138.24 x_71 + 138.24 x_72 + 69.12 x_73 + 92.16 x_74 + 46.08 x_75
   + 69.12 x_76 + 46.08 x_80 + 46.08 x_81 + 92.16 x_82 + 138.24 x_83
   + 115.2 x_84 + 92.16 x_85 + 92.16 x_86 + 92.16 x_90 + 138.24 x_91
   + 115.2 x_92 + 46.08 x_93 + 69.12 x_94 + 69.12 x_95 + 92.16 x_96
   - 880 b_0 - 880 b_1 - 880 b_2 - 880 b_3 - 880 b_4 - 880 b_5 - 880 b_6
Subject To
 R0: 12 x_00 + 9 x_10 + 15 x_20 + 12 x_30 + 9 x_40 + 15 x_50 + 12 x_60
   + 15 x_70 + 9 x_80 + 12 x_90 + s_0 - e_0 = 100
 R1: 15 x_01 + 15 x_11 + 12 x_21 + 12 x_31 + 15 x_41 + 9 x_51 + 12 x_61
   + 15 x_71 + 9 x_81 + 15 x_91 + s_1 - e_1 = 100
 R2: 9 x_02 + 15 x_12 + 9 x_22 + 9 x_32 + 12 x_42 + 15 x_52 + 12 x_62
   + 15 x_72 + 12 x_82 + 15 x_92 + s_2 - e_2 = 100
 R3: 9 x_03 + 15 x_13 + 12 x_23 + 12 x_33 + 9 x_43 + 9 x_53 + 15 x_63
   + 12 x_73 + 15 x_83 + 9 x_93 + s_3 - e_3 = 100
 R4: 15 x_04 + 15 x_14 + 9 x_24 + 12 x_34 + 15 x_44 + 15 x_54 + 12 x_64
   + 12 x_74 + 15 x_84 + 12 x_94 + s_4 - e_4 = 100
 R5: 9 x_05 + 15 x_15 + 15 x_25 + 15 x_35 + 15 x_45 + 12 x_55 + 15 x_65
   + 9 x_75 + 12 x_85 + 12 x_95 + s_5 - e_5 = 100
 R6: 9 x_06 + 12 x_16 + 12 x_26 + 15 x_36 + 15 x_46 + 9 x_56 + 12 x_66
   + 12 x_76 + 12 x_86 + 12 x_96 + s_6 - e_6 = 100
 R7: - 1e+06 b_0 + e_0 >= -999999
 R8: - 1e+06 b_1 + e_1 >= -999999
 R9: - 1e+06 b_2 + e_2 >= -999999
 R10: - 1e+06 b_3 + e_3 >= -999999
 R11: - 1e+06 b_4 + e_4 >= -999999
 R12: - 1e+06 b_5 + e_5 >= -999999
 R13: - 1e+06 b_6 + e_6 >= -999999
 R14: e_0 <= 20
 R15: e_1 <= 20
 R16: e_2 <= 20
 R17: e_3 <= 20
 R18: e_4 <= 20
 R19: e_5 <= 20
 R20: e_6 <= 20
 R21: x_00 <= 1
 R22: x_10 <= 1
 R23: x_20 <= 1
 R24: x_30 <= 1
 R25: x_40 <= 1
 R26: x_50 <= 1
 R27: x_60 <= 1
 R28: x_70 <= 1
 R29: x_80 <= 1
 R30: x_90 <= 1
 R31: x_01 <= 1
 R32: x_11 <= 1
 R33: x_21 <= 1
 R34: x_31 <= 1
 R35: x_41 <= 1
 R36: x_51 <= 1
 R37: x_61 <= 1
 R38: x_71 <= 1
 R39: x_81 <= 1
 R40: x_91 <= 1
 R41: x_02 <= 1
 R42: x_12 <= 1
 R43: x_22 <= 1
 R44: x_32 <= 1
 R45: x_42 <= 1
 R46: x_52 <= 1
 R47: x_62 <= 1
 R48: x_72 <= 1
 R49: x_82 <= 1
 R50: x_92 <= 1
 R51: x_03 <= 1
 R52: x_13 <= 1
 R53: x_23 <= 1
 R54: x_33 <= 1
 R55: x_43 <= 1
 R56: x_53 <= 1
 R57: x_63 <= 1
 R58: x_73 <= 1
 R59: x_83 <= 1
 R60: x_93 <= 1
 R61: x_04 <= 1
 R62: x_14 <= 1
 R63: x_24 <= 1
 R64: x_34 <= 1
 R65: x_44 <= 1
 R66: x_54 <= 1
 R67: x_64 <= 1
 R68: x_74 <= 1
 R69: x_84 <= 1
 R70: x_94 <= 1
 R71: x_05 <= 1
 R72: x_15 <= 1
 R73: x_25 <= 1
 R74: x_35 <= 1
 R75: x_45 <= 1
 R76: x_55 <= 1
 R77: x_65 <= 1
 R78: x_75 <= 1
 R79: x_85 <= 1
 R80: x_95 <= 1
 R81: x_06 <= 1
 R82: x_16 <= 1
 R83: x_26 <= 1
 R84: x_36 <= 1
 R85: x_46 <= 1
 R86: x_56 <= 1
 R87: x_66 <= 1
 R88: x_76 <= 1
 R89: x_86 <= 1
 R90: x_96 <= 1
Bounds
Binaries
 x_00 x_01 x_02 x_03 x_04 x_05 x_06 x_10 x_11 x_12 x_13 x_14 x_15 x_16 x_20
 x_21 x_22 x_23 x_24 x_25 x_26 x_30 x_31 x_32 x_33 x_34 x_35 x_36 x_40 x_41
 x_42 x_43 x_44 x_45 x_46 x_50 x_51 x_52 x_53 x_54 x_55 x_56 x_60 x_61 x_62
 x_63 x_64 x_65 x_66 x_70 x_71 x_72 x_73 x_74 x_75 x_76 x_80 x_81 x_82 x_83
 x_84 x_85 x_86 x_90 x_91 x_92 x_93 x_94 x_95 x_96 b_0 b_1 b_2 b_3 b_4 b_5
 b_6
Generals
 s_0 s_1 s_2 s_3 s_4 s_5 s_6 e_0 e_1 e_2 e_3 e_4 e_5 e_6
End
